\Problem name: 

Minimize
OBJROW: -10000 c_fpt000 -15000 c_krt000 -1000 c_slyck -10000 c_wpt006 -10000 d_ftr074_culos -45000 d_mnrrh_13_na -46000 d_orovl_13_nu1 -45000 d_wtpmnr_13_nu1 -45000 d_mnrrh_13_nu2 -45000 d_owc000_13_na
 -99999 d_bgc002_plmas -99999 d_nll016_lccwd -35000 d_wbf030_hkc002 -1000 d_mio010_wbf006 -5100 d_mio023_12_nu1 -5000 d_mio023_10_na -1000 d_nff029_poe006 -1000 d_nff035_cst004 -1000 d_nff046_rct007 -10000 d_nff058_btn007
 -1000 d_mtmdw_nff080 -1000 d_gzl008_gft003 -1000 d_lbuck_grt003 -1000 d_btvly_crb002 -1000 d_almnr_bvt003 + 9999 gp_13_na + 9999 gp_13_nu1 -11000 c_nff029_mif -11000 c_nff035_mif -51000 c_nff046_mif
 -51000 c_nff058_mif -11000 c_mtmdw_mif -51000 c_almnr_mif -22000 c_gzl008_mif -51000 c_lbuck_mif -55000 c_antlp_mif -51000 c_rvphb_mif -51000 c_wbf030_mif -2000000 c_bgc002_mif + 3000 c_bgc002_add
 -1100000 c_nll016_mif -55000 c_sff039_mif -55000 c_sff028_mif -55000 c_sff018_mif -55000 c_lst003_mif -11000 c_slt008_mif -33611111.11333333700895 s_almnr_1 -840277.77783333347179 s_almnr_2 -840277.77783333347179 s_almnr_3 -840277.77783333347179 s_almnr_4
 + 16805555.55666666850448 s_almnr_5 -33611111.11333333700895 s_antlp_1 -840277.77783333347179 s_antlp_2 -840277.77783333347179 s_antlp_3 -840277.77783333347179 s_antlp_4 + 16805555.55666666850448 s_antlp_5 -33611111.11333333700895 s_bucks_1 -840277.77783333347179 s_bucks_2 -840277.77783333347179 s_bucks_3 -840277.77783333347179 s_bucks_4
 + 16805555.55666666850448 s_bucks_5 -33611111.11333333700895 s_btvly_1 -840277.77783333347179 s_btvly_2 -840277.77783333347179 s_btvly_3 -840277.77783333347179 s_btvly_4 + 16805555.55666666850448 s_btvly_5 -33611111.11333333700895 s_davis_1 -840277.77783333347179 s_davis_2 -840277.77783333347179 s_davis_3 -840277.77783333347179 s_davis_4
 + 16805555.55666666850448 s_davis_5 -33611111.11333333700895 s_frman_1 -16805555.55666666850448 s_frman_2 -16805555.55666666850448 s_frman_3 -840277.77783333347179 s_frman_4 + 16805555.55666666850448 s_frman_5 -33611111.11333333700895 s_lgrsv_1 -1008333.33340000011958 s_lgrsv_2 -672222.22226666670758 s_lgrsv_3 -336111.11113333335379 s_lgrsv_4
 + 1680555.55566666694358 s_lgrsv_5 -33611111.11333333700895 s_mtmdw_1 -1008333.33340000011958 s_mtmdw_2 -1008333.33340000011958 s_mtmdw_3 -1008333.33340000011958 s_mtmdw_4 + 16805555.55666666850448 s_mtmdw_5 -33611111.11333333700895 s_slyck_1 -1008333.33340000011958 s_slyck_2 -672222.22226666670758 s_slyck_3 -67222.22222666667949 s_slyck_4
 + 1680555.55566666694358 s_slyck_5 -33611111.11333333700895 s_rvphb_1 -672222.22226666670758 s_rvphb_2 -504166.66670000005979 s_rvphb_3 -99999 r_lccwd_mff095 -99999 r_plmas_mff088
Subject To
setorovillefnf_updatemarchdv:  orovillefnf_updatemarchdv = -9999
setminflow_nff029dv:  minflow_nff029dv = 50
setminflow_nff035dv:  minflow_nff035dv = 114.52000000000000
setminflow_nff046dv:  minflow_nff046dv = 124.34999999999999
setminflow_nff058dv:  minflow_nff058dv = 60
setminflow_almnrdv:  minflow_almnrdv = 35
setorovillefnf_westfeathdv:  orovillefnf_westfeathdv = -9999
setorovillefnf_wydv:  orovillefnf_wydv = -9999
continuityftr074:  - c_ftr074 + c_sff002 + c_nff008 - d_ftr074_culos = 0
continuitynff008:  c_wbf006 - c_nff008 + c_nff020 = 0
continuitynff020:  - c_nff020 + c_nff027 + c_poe006 = 0
continuitypoe006:  - c_poe006 + d_nff029_poe006 = 0
continuitynff027:  - c_nff027 + c_nff028 = 0
continuitynff028:  - c_nff028 + c_nff029 = 0
continuitynff029:  - c_nff029 + c_nff030 - d_nff029_poe006 = -2560.57317962621710
continuitynff030:  - c_nff030 + c_cst004 + c_nff034 = 0
continuitycst004:  - c_cst004 + d_nff035_cst004 = 0
continuitynff034:  - c_nff034 + c_nff035 + c_gzl007 = 0
continuitynff035:  - c_nff035 + c_nff037 - d_nff035_cst004 = 0
continuitynff037:  - c_nff037 + c_rct007 + c_nff038 = 0
continuityrct007:  - c_rct007 + d_nff046_rct007 = 0
continuitynff038:  - c_nff038 + c_gft003 + c_nff039 = 0
continuitynff039:  - c_nff039 + c_nff045 + c_buk007 = 0
continuitynff045:  - c_nff045 + c_nff046 = 0
continuitynff046:  - c_nff046 + c_nff048 - d_nff046_rct007 = 0
continuitynff048:  - c_nff048 + c_btn007 + c_nff050 = 0
continuitybtn007:  - c_btn007 + d_nff058_btn007 = 0
continuitynff050:  - c_nff050 + c_nff057 + c_ebf001 = 0
continuitynff057:  - c_nff057 + c_nff058 = 0
continuitynff058:  - c_nff058 + c_nff059 - d_nff058_btn007 = 0
continuitynff059:  - c_nff059 + c_crb002 + c_nff060 = 0
continuitynff060:  - c_nff060 + c_nff069 + c_btvly = 0
continuitynff069:  - c_nff069 + c_almnr = 0
continuityalmnr:  - c_almnr + c_nff080 - d_almnr_bvt003 -16.80555555666667 s_almnr - e_almnr = -18467.86415010271594
continuitynff080:  - c_nff080 + c_mtmdw + d_mtmdw_nff080 = 0
continuitymtmdw:  - c_mtmdw - d_mtmdw_nff080 -16.80555555666667 s_mtmdw - e_mtmdw = -899.19105250952487
continuitygzl007:  - c_gzl007 + c_gzl008 = 0
continuitygzl008:  - c_gzl008 + c_gzl009 - d_gzl008_gft003 = 0
continuitygft003:  - c_gft003 + d_gzl008_gft003 = 0
continuitygzl009:  - c_gzl009 + c_grt003 = -333.19601935364369
continuitygrt003:  - c_grt003 + d_lbuck_grt003 = 0
continuitybuk007:  - c_buk007 + c_lbuck = 0
continuitylbuck:  c_bucks - c_lbuck - d_lbuck_grt003 = 0
continuitybucks:  - c_bucks -16.80555555666667 s_bucks - e_bucks = -1979.97285326167184
continuityebf001:  - c_ebf001 + c_ebf018 = -5477.14636944849735
continuityebf018:  - c_ebf018 + c_antlp = 0
continuityantlp:  - c_antlp -16.80555555666667 s_antlp - e_antlp = -621.42606765829055
continuitycrb002:  - c_crb002 + d_btvly_crb002 = 0
continuitybtvly:  - c_btvly + c_btt007 - d_btvly_crb002 -16.80555555666667 s_btvly - e_btvly = -910.83730783126771
continuitybtt007:  - c_btt007 + c_bvt003 = 0
continuitybvt003:  - c_bvt003 + d_almnr_bvt003 = 0
continuityrvphb:  - c_rvphb -16.80555555666667 s_rvphb = -125.44265655181351
continuitywbf039:  c_rvphb - c_wbf039 = 0
continuitywbf030:  c_wbf039 - c_wbf030 - d_wbf030_hkc002 = -511.82957281741614
continuitywbf015:  c_wbf030 - c_wbf015 - d_wbf015_mio010 = -786.11450518401398
contiunitymio010:  - c_mio010 + d_wbf015_mio010 - d_mio010_wbf006 = 0
continuitymio023:  c_mio010 - d_mio023_12_nu1 - d_mio023_10_na = 0
continuitywbf006:  c_wbf015 - c_wbf006 + d_mio010_wbf006 = -368.03585849652131
continuityhkc002:  - c_hkc002 + d_wbf030_hkc002 = 0
continuityttc000:  c_hkc002 - c_ttc000 = 0
continuityttc002:  - c_ttc002 + c_ttc000 = 0
continuitylgrsv:  - c_lgrsv -16.80555555666667 s_lgrsv - e_lgrsv = -1612.55977296894412
continuitysff039:  c_lgrsv - c_sff039 = 0
continuitysff029:  c_sff039 - c_sff029 - d_sff029_sft000 = 0
continuitysff028:  c_sff029 - c_sff028 = 0
continuitysff020:  c_sff028 - c_sff020 + c_lst003 = 0
continuitysff019:  c_sff020 - c_sff019 + c_wpt006 - d_sff019_fpt000 = -967.75700469587423
continuityfpt000:  - c_fpt000 + d_sff019_fpt000 = 0
continuitysff018:  c_sff019 - c_sff018 = 0
continuitysff011:  c_fpt000 + c_sff018 - c_sff011 - d_sff011_mnrrh = 0
continuitysff008:  c_sff011 - c_sff008 = -218.21971643089267
continuitysff002:  c_sff008 - c_sff002 + c_mff019 = 0
continuitysft000:  - c_sft000 + d_sff029_sft000 = 0
continuitylst007:  - c_lst007 + c_sft000 + c_sct000 = 0
continuityslyck:  c_lst007 - c_slyck -16.80555555666667 s_slyck - e_slyck = -1436.40874183403048
continuitylst004:  c_slyck - c_lst004 - d_lst004_wpt005 = 0
continuitylst003:  c_lst004 - c_lst003 = 0
continuitywpt005:  - c_wpt005 + d_lst004_wpt005 - d_wpt005_owc000 = 0
continuitywpt006:  c_wpt005 - c_wpt006 = 0
continuityowc000:  - d_owc000_13_na + d_wpt005_owc000 = 0
continuitymnrrh:  - d_mnrrh_13_na + d_sff011_mnrrh - d_mnrrh_wtpmnr - d_mnrrh_krt000 - d_mnrrh_13_nu2 = 0
contiunitykrt000:  - c_krt000 + d_mnrrh_krt000 = 0
continuitywtpmnr:  d_mnrrh_wtpmnr - d_wtpmnr_13_nu1 = 0
continuityslt009:  - c_slt009 - d_slt009_sct000 = -824.90734635614808
continuityslt008:  c_slt009 - c_slt008 = 0
continuitysct000:  - c_sct000 + d_slt009_sct000 = 0
continuitydavis:  - c_davis -16.80555555666667 s_davis - e_davis = -1561.20542907440495
continuityfrman:  - c_frman -16.80555555666667 s_frman - e_frman = -1101.13996314335418
contiunityllc007:  c_frman - c_llc007 = 0
continuitynll016:  c_llc007 - c_nll016 - d_nll016_lccwd = 0
continuitymff095:  c_nll016 - c_mff095 + r_lccwd_mff095 = 0
continuitybgc002:  c_davis - c_bgc002 - d_bgc002_plmas = 0
continuitymff088:  c_mff095 - c_mff088 + c_bgc002 + r_plmas_mff088 = 0
continuitymff087:  c_mff088 - c_mff087 = -833.94017860839995
continuitymff019:  c_mff087 - c_mff019 = -5457.98471274963958
setdg_12_nu1:  d_mio023_12_nu1 = 0
setdg_13_na:  dg_13_na - d_mnrrh_13_na - d_owc000_13_na = 0
setdn_13_na:  dn_13_na - dg_13_na + dl_13_na = 0
meetaw_13_na:  - dn_13_na - ru_13_na + rp_13_na + aw_13_na - gp_13_na = 0
setdg_13_na_2:  -0.50000000000000 dg_13_na + d_owc000_13_na = 0
setdg_13_nu1:  dg_13_nu1 - d_orovl_13_nu1 - d_wtpmnr_13_nu1 = 0
setdn_13_nu1:  dn_13_nu1 - dg_13_nu1 + dl_13_nu1 = 0
setud_13_nu1:  - dn_13_nu1 - gp_13_nu1 = -5.14452782390090
set_d_orovl_13_nu1:  d_orovl_13_nu1 - dl_orovl_13_nu1 <= 0.97746028654117
setdg_13_nu2:  dg_13_nu2 - d_mnrrh_13_nu2 = 0
setdn_13_nu2:  dn_13_nu2 - dg_13_nu2 + dl_13_nu2 = 0
setud_13_nu2:  - dn_13_nu2 - gp_13_nu2 = 0
setgpmin_13_na:  gp_13_na >= 0.01657244761817
setgpmin_13_nu1:  gp_13_nu1 >= 0
setgpmin_13_nu2:  gp_13_nu2 >= 0
set_gp_wbatotal_13:  - gp_13_na - gp_13_nu1 - gp_13_nu2 + gp_wbatotal_13 = 0
c_nff029total:  c_nff029 - c_nff029_mif - c_nff029_add = 0
setpoedammin:  c_nff029_mif + c_nff029_shtg = 50
c_nff035total:  c_nff035 - c_nff035_mif - c_nff035_add = 0
setcrestadammin:  c_nff035_mif + c_nff035_shtg = 114.52000000000000
c_nff046total:  c_nff046 - c_nff046_mif - c_nff046_add = 0
setrockcreekmin:  c_nff046_mif + c_nff046_shtg = 124.34999999999999
c_nff058total:  c_nff058 - c_nff058_mif - c_nff058_add = 0
setbeldenmin:  c_nff058_mif + c_nff058_shtg = 60
c_mtmdwtotal:  c_mtmdw - c_mtmdw_mif - c_mtmdw_add = 0
setmtmdwmin:  c_mtmdw_mif + c_mtmdw_shtg = 4
c_almnrtotal:  c_almnr - c_almnr_mif - c_almnr_add = 0
setalmnrmin:  c_almnr_mif + c_almnr_shtg = 35
c_gzl008total:  c_gzl008 - c_gzl008_mif - c_gzl008_add = 0
setgrizzlymin:  c_gzl008_mif + c_gzl008_shtg = 4
c_lbuckstotal:  c_lbuck - c_lbuck_mif - c_lbuck_add = 0
setbucksmin:  c_lbuck_mif + c_lbuck_shtg = 4
c_rvphbtotal:  c_rvphb - c_rvphb_mif - c_rvphb_add = 0
setrvphbmin:  c_rvphb_mif + c_rvphb_shtg = 2.10000000000000
c_sff039total:  c_sff039 - c_sff039_mif - c_sff039_add = 0
setsff039min:  c_sff039_mif + c_sff039_shtg = 5
c_sff028total:  c_sff028 - c_sff028_mif - c_sff028_add = 0
setsff028min:  c_sff028_mif + c_sff028_shtg = 5
c_sff018total:  c_sff018 - c_sff018_mif - c_sff018_add = 0
setsff018min:  c_sff018_mif + c_sff018_shtg = 5
c_lst003total:  c_lst003 - c_lst003_mif - c_lst003_add = 0
setlst003min:  c_lst003_mif + c_lst003_shtg = 8
c_slt008total:  c_slt008 - c_slt008_mif - c_slt008_add = 0
setslt008min:  c_slt008_mif + c_slt008_shtg = 10
c_antlptotal:  c_antlp - c_antlp_mif - c_antlp_add = 0
c_antlpminflow:  c_antlp_mif + c_antlp_shtg = 20
c_nll016total:  c_nll016 - c_nll016_mif - c_nll016_add = 0
c_nll016minflow:  c_nll016_mif + c_nll016_shtg = 2
c_bgc002total:  c_bgc002 - c_bgc002_mif - c_bgc002_add = 0
c_bgc002minflow:  c_bgc002_mif + c_bgc002_shtg = 22
c_wbf015total:  c_wbf015 - c_wbf015_mif - c_wbf015_add = 0
c_wbf015minflow:  c_wbf015_mif + c_wbf015_shtg = 0
c_wbf030total:  c_wbf030 - c_wbf030_mif - c_wbf030_add = 0
c_wbf030minflow:  c_wbf030_mif + c_wbf030_shtg = 7
s_buckszone1:  s_bucks_1 <= 0
s_buckszone2:  s_bucks_2 <= 0
s_buckszone3:  s_bucks_3 <= 0
s_buckszone4:  s_bucks_4 <= 85.30000000000000
s_buckszone5:  s_bucks_5 <= 17.70000000000000
storage_bucks:  - s_bucks_1 - s_bucks_2 - s_bucks_3 - s_bucks_4 - s_bucks_5 + s_bucks = 0
area_bucks:  -7.78932605236450 s_bucks + a_bucks = 1011.35451415011607
setevap_bucks:  59.50413222747080 e_bucks -0.10083333651225 a_bucks = 163.85079097713884
maxrelease_bucks:  c_bucks <= 99999
s_antlpzone1:  s_antlp_1 <= 0
s_antlpzone2:  s_antlp_2 <= 0
s_antlpzone3:  s_antlp_3 <= 0
s_antlpzone4:  s_antlp_4 <= 22.60000000000000
s_antlpzone5:  s_antlp_5 <= 0
storage_antlp:  - s_antlp_1 - s_antlp_2 - s_antlp_3 - s_antlp_4 - s_antlp_5 + s_antlp = 0
area_antlp:  -41.41592920353978 s_antlp + a_antlp = 0
setevap_antlp:  59.50413222747080 e_antlp -0.11250000198682 a_antlp = 108.44967899441500
maxrelease_antlp:  c_antlp <= 99999
sets_antlp:  s_antlp <= 100022.27599906921387
s_btvlyzone1:  s_btvly_1 <= 29
s_btvlyzone2:  s_btvly_2 <= 0
s_btvlyzone3:  s_btvly_3 <= 0
s_btvlyzone4:  s_btvly_4 <= 10.50000000000000
s_btvlyzone5:  s_btvly_5 <= 10.40000000000000
storage_btvly:  - s_btvly_1 - s_btvly_2 - s_btvly_3 - s_btvly_4 - s_btvly_5 + s_btvly = 0
area_btvly:  -32.06412825651305 s_btvly + a_btvly = 0
setevap_btvly:  59.50413222747080 e_btvly -0.11499999960264 a_btvly = 140.12023999679860
maxrelease_btvly:  c_btvly <= 99999
s_almnrzone1:  s_almnr_1 <= 567
s_almnrzone2:  s_almnr_2 <= 0
s_almnrzone3:  s_almnr_3 <= 0
s_almnrzone4:  s_almnr_4 <= 575.90000000000009
s_almnrzone5:  s_almnr_5 <= 0
storage_almnr:  - s_almnr_1 - s_almnr_2 - s_almnr_3 - s_almnr_4 - s_almnr_5 + s_almnr = 0
area_almnr:  -9.79576767177504 s_almnr + a_almnr = 16037.32069500600119
setevap_almnr:  59.50413222747080 e_almnr -0.11250000198682 a_almnr = 2912.07753256217984
maxrelease_almnr:  c_almnr <= 99999
s_mtmdwzone1:  s_mtmdw_1 <= 0
s_mtmdwzone2:  s_mtmdw_2 <= 0
s_mtmdwzone3:  s_mtmdw_3 <= 0
s_mtmdwzone4:  s_mtmdw_4 <= 8
s_mtmdwzone5:  s_mtmdw_5 <= 15.90000000000000
storage_mtmdw:  - s_mtmdw_1 - s_mtmdw_2 - s_mtmdw_3 - s_mtmdw_4 - s_mtmdw_5 + s_mtmdw = 0
area_mtmdw:  -240.50000000000000 s_mtmdw + a_mtmdw = 0
setevap_mtmdw:  59.50413222747080 e_mtmdw -0.10375000039736 a_mtmdw = 184.81854045098365
maxrelease_mtmdw:  c_mtmdw <= 99999
s_daviszone1:  s_davis_1 <= 37.67700000000000
s_daviszone2:  s_davis_2 <= 0
s_daviszone3:  s_davis_3 <= 0
s_daviszone4:  s_davis_4 <= 46.69400000000000
s_daviszone5:  s_davis_5 <= 0
storage_davis:  - s_davis_1 - s_davis_2 - s_davis_3 - s_davis_4 - s_davis_5 + s_davis = 0
area_davis:  -24.29582971498174 s_davis + a_davis = 1922.63654256200334
evap_davis:  59.50413222747080 e_davis -0.11333333452543 a_davis = 432.67394738853204
maxrel_davis:  c_davis <= 99999
sets_davis:  s_davis <= 100077
s_frmanzone1:  s_frman_1 <= 2.20800000000000
s_frmanzone2:  s_frman_2 <= 0
s_frmanzone3:  s_frman_3 <= 27.79200000000000
s_frmanzone4:  s_frman_4 <= 25.47700000000000
s_frmanzone5:  s_frman_5 <= 0
storage_frman:  - s_frman_1 - s_frman_2 - s_frman_3 - s_frman_4 - s_frman_5 + s_frman = 0
area_frman:  -18.08994396146121 s_frman + a_frman = 576.47409165601630
evap_frman:  59.50413222747080 e_frman -0.11499999960264 a_frman = 174.47238482711819
maxrel_frman:  c_frman <= 8560.46028847909474
sets_frman:  s_frman <= 100051
s_lgrsvzone1:  s_lgrsv_1 <= 0.50000000000000
s_lgrsvzone2:  s_lgrsv_2 <= 0
s_lgrsvzone3:  s_lgrsv_3 <= 71.34999999999999
s_lgrsvzone4:  s_lgrsv_4 <= 13.15000000000001
s_lgrsvzone5:  s_lgrsv_5 <= 4.80400000000000
storage_lgrsv:  - s_lgrsv_1 - s_lgrsv_2 - s_lgrsv_3 - s_lgrsv_4 - s_lgrsv_5 + s_lgrsv = 0
area_lgrsv:  -12.44590797791922 s_lgrsv + a_lgrsv = 537.11420331682632
evap_lgrsv:  59.50413222747080 e_lgrsv -0.11000000437101 a_lgrsv = 162.62107071165497
s_slyckzone1:  s_slyck_1 <= 0.57100000000000
s_slyckzone2:  s_slyck_2 <= 0
s_slyckzone3:  s_slyck_3 <= 53.67900000000000
s_slyckzone4:  s_slyck_4 <= 0.00200000000000
s_slyckzone5:  s_slyck_5 <= 10.08599999999999
storage_slyck:  - s_slyck_1 - s_slyck_2 - s_slyck_3 - s_slyck_4 - s_slyck_5 + s_slyck = 0
area_slyck:  -9.18184938760218 s_slyck + a_slyck = 40.03666559855168
evap_slyck:  59.50413222747080 e_slyck -0.11749999721845 a_slyck = 61.31463201332622
s_rvphbzone1:  s_rvphb_1 <= 0.25000000000000
s_rvphbzone2:  s_rvphb_2 <= 4.34400000000000
s_rvphbzone3:  s_rvphb_3 <= 1.54900000000000
storage_rvphb:  - s_rvphb_1 - s_rvphb_2 - s_rvphb_3 + s_rvphb = 0
sets_upperfeather:  - s_almnr - s_antlp - s_bucks - s_btvly - s_davis - s_frman - s_lgrsv - s_mtmdw - s_slyck - s_rvphb
 + s_upperfeather = 0
sete_upperfeather:  - e_almnr - e_antlp - e_bucks - e_btvly - e_davis - e_frman - e_lgrsv - e_mtmdw - e_slyck + e_upperfeather
 = 0
setr_plmas_mff088:  r_plmas_mff088 = 0.45375000003000
setev_13_na:  -0.01000000000000 d_mnrrh_13_na -0.01000000000000 d_owc000_13_na + ev_13_na = 0
setdp_13_na:  -0.19000000000000 d_mnrrh_13_na -0.19000000000000 d_owc000_13_na + dp_13_na = 0
setlf_13_na:  -0.11000000000000 d_mnrrh_13_na -0.11000000000000 d_owc000_13_na + lf_13_na = 0
setos_13_na:  -0.04000000000000 d_mnrrh_13_na -0.04000000000000 d_owc000_13_na + os_13_na = 0
setdl_13_na:  - ev_13_na - dp_13_na - lf_13_na - os_13_na + dl_13_na = 0
setru_13_na:  ru_13_na = 0.00242287245880
setaw_13_na:  aw_13_na = 0.04845744917593
setrp_13_na:  rp_13_na = 0
setel_wtpmnr_13_nu1:  el_wtpmnr_13_nu1 = 0
setsl_wtpmnr_13_nu1:  sl_wtpmnr_13_nu1 = 0
setdl_wtpmnr_13_nu1:  dl_wtpmnr_13_nu1 - el_wtpmnr_13_nu1 - sl_wtpmnr_13_nu1 = 0
setel_orovl_13_nu1:  el_orovl_13_nu1 = 0
setsl_orovl_13_nu1:  -0.80000000000000 d_orovl_13_nu1 + sl_orovl_13_nu1 = 0
setdl_orovl_13_nu1:  dl_orovl_13_nu1 - el_orovl_13_nu1 - sl_orovl_13_nu1 = 0
setdl_13_nu1:  - dl_wtpmnr_13_nu1 - dl_orovl_13_nu1 + dl_13_nu1 = 0
setel_mnrrh_13_nu2:  el_mnrrh_13_nu2 = 0
setsl_mnrrh_13_nu2:  sl_mnrrh_13_nu2 = 0
setdl_mnrrh_13_nu2:  dl_mnrrh_13_nu2 - el_mnrrh_13_nu2 - sl_mnrrh_13_nu2 = 0
setdl_13_nu2:  - dl_mnrrh_13_nu2 + dl_13_nu2 = 0
setopsflowpoe:  d_nff029_poe006 <= 3700
setopsflowcresta:  d_nff035_cst004 <= 3510
setopsflowbucks:  d_gzl008_gft003 <= 384
setopsflowlbuck:  d_lbuck_grt003 <= 400
setopsflowrckck:  d_nff046_rct007 <= 2880
setopsflowbeld:  d_nff058_btn007 <= 2410
setopsflowcaribou:  d_btvly_crb002 <= 2578
setopsflowprat:  d_almnr_bvt003 <= 1620
set_d_wbf030_hkc002:  d_wbf030_hkc002 <= 65
set_d_mio023_10_na:  d_mio023_10_na <= 0.60500000004000
set_d_wbf015_mio010_tgt:  d_wbf015_mio010 <= 10
sets_slyck:  s_lgrsv + s_slyck -0.05950413222747 d_slt009_sct000_dd <= 100127.09999847412109
sets_lgrsv:  s_lgrsv <= 100074.62799835205078
setc_slyck1:  c_slyck - d_slt009_sct000_dd >= 0
sets_slyck1:  s_slyck -0.05950413222747 d_slt009_sct000_ds >= 0
set_nbbcuminflowdv:  nbbcuminflowdv = -9267.68512846293379
set_nbbcuminflow2dv:  nbbcuminflow2dv = -9269.27190532233180
sumd_slt009_sct000:  d_slt009_sct000 - d_slt009_sct000_dd - d_slt009_sct000_ds = 0
set_slatecreekcumdsdv:  slatecreekcumdsdv = -10613.81454541389576
setd_slt009_sct000_ds_1:  d_slt009_sct000_ds <= 300
setd_slt009_sct000_ds_2:  d_slt009_sct000_ds <= 178959.24445559331798
set6_d_slt009_sct000:  d_slt009_sct000 <= 470
historicald_slt009_sct000:  d_slt009_sct000 <= 208.33333333333334
temeratured_slt009_sct000:  d_slt009_sct000 <= 600
setd_nll016_lccwd:  d_nll016_lccwd <= 6.05000000040000
setr_lccwd_mff095:  -0.20000000000000 d_nll016_lccwd + r_lccwd_mff095 <= 0
setd_bgc002_plmas:  d_bgc002_plmas <= 0.67760000004480
setc_krt000:  c_krt000 <= 262
limit_d_orovl_13_nu1:  d_orovl_13_nu1 <= 4.03333333360000
setculos:  d_ftr074_culos + d_bgc002_plmas + d_nll016_lccwd - r_lccwd_mff095 - r_plmas_mff088 <= 21.84722142231533
Bounds
 0 <= c_ftr074 <= 99999
 0 <= c_lgrsv <= 99999
 0 <= c_sff039 <= 99999
 0 <= c_sff029 <= 99999
 0 <= c_sff028 <= 99999
 0 <= c_sff020 <= 99999
 0 <= c_sff019 <= 99999
 0 <= c_fpt000 <= 99999
 0 <= c_sff018 <= 99999
 0 <= c_sff011 <= 99999
 0 <= c_sff008 <= 99999
 0 <= c_sff002 <= 99999
 0 <= c_krt000 <= 99999
 0 <= c_lst007 <= 99999
 0 <= c_slyck <= 99999
 0 <= c_sft000 <= 99999
 0 <= c_lst004 <= 99999
 0 <= c_lst003 <= 99999
 0 <= c_wpt005 <= 620
 0 <= c_wpt006 <= 99999
 0 <= c_slt009 <= 99999
 0 <= c_slt008 <= 99999
 0 <= c_sct000 <= 99999
 0 <= c_frman <= 99999
 0 <= c_davis <= 99999
 0 <= c_llc007 <= 99999
 0 <= c_nll016 <= 99999
 0 <= c_mff095 <= 99999
 0 <= c_mff088 <= 99999
 0 <= c_mff087 <= 99999
 0 <= c_bgc002 <= 99999
 0 <= c_mff019 <= 99999
 0 <= c_rvphb <= 99999
 0 <= c_wbf039 <= 99999
 0 <= c_wbf030 <= 99999
 0 <= c_wbf015 <= 99999
 0 <= c_wbf006 <= 99999
 0 <= c_mio010 <= 99999
 0 <= c_hkc002 <= 125
 0 <= c_ttc002 <= 125
 0 <= c_ttc000 <= 125
 0 <= c_nff008 <= 99999
 0 <= c_nff020 <= 99999
 0 <= c_nff027 <= 99999
 0 <= c_poe006 <= 99999
 0 <= c_nff028 <= 99999
 0 <= c_nff029 <= 99999
 0 <= c_nff030 <= 99999
 0 <= c_cst004 <= 99999
 0 <= c_nff034 <= 99999
 0 <= c_nff035 <= 99999
 0 <= c_nff037 <= 99999
 0 <= c_rct007 <= 99999
 0 <= c_nff038 <= 99999
 0 <= c_gft003 <= 99999
 0 <= c_nff039 <= 99999
 0 <= c_nff045 <= 99999
 0 <= c_nff046 <= 99999
 0 <= c_nff048 <= 99999
 0 <= c_btn007 <= 99999
 0 <= c_nff050 <= 99999
 0 <= c_nff057 <= 99999
 0 <= c_nff058 <= 99999
 0 <= c_nff059 <= 99999
 0 <= c_crb002 <= 99999
 0 <= c_nff060 <= 99999
 0 <= c_nff069 <= 99999
 0 <= c_almnr <= 99999
 0 <= c_nff080 <= 99999
 0 <= c_mtmdw <= 99999
 0 <= c_gzl007 <= 99999
 0 <= c_gzl008 <= 99999
 0 <= c_gzl009 <= 99999
 0 <= c_grt003 <= 99999
 0 <= c_buk007 <= 99999
 0 <= c_bucks <= 99999
 0 <= c_lbuck <= 99999
 0 <= c_ebf001 <= 99999
 0 <= c_ebf018 <= 99999
 0 <= c_antlp <= 99999
 0 <= c_btvly <= 99999
 0 <= c_btt007 <= 99999
 0 <= c_bvt003 <= 99999
 0 <= d_sff029_sft000 <= 600
 0 <= d_sff019_fpt000 <= 660
 0 <= d_sff011_mnrrh <= 300
 0 <= d_mnrrh_krt000 <= 260
 0 <= d_orovl_13_nu1 <= 25
 0 <= d_slt009_sct000 <= 848
 0 <= d_wbf030_hkc002 <= 125
 0 <= d_wbf015_mio010 <= 65
 0 <= d_mtmdw_nff080 <= 200
 e_almnr Free
 e_antlp Free
 e_bucks Free
 e_btvly Free
 e_davis Free
 e_frman Free
 e_lgrsv Free
 e_mtmdw Free
 e_slyck Free
 0 <= d_slt009_sct000_dd <= 300
 0 <= d_slt009_sct000_ds <= 300
End
